number_of_players = 40;
player_name = [
    "A", "B", "C", "D", "E", "F", "G", "H", "I", "J",
    "K", "L", "M", "N", "O", "P", "Q", "R", "S", "T",
    "U", "V", "W", "X", "Y", "Z", "AA", "AB", "AC", "AD",
    "AE", "AF", "AG", "AH", "AI", "AJ", "AK", "AL", "AM", "AN"
];
player_competitive = [
    true, true, true, true, false, true, true, true, true, false,
    true, true, true, true, false, true, true, true, true, false,
    false, false, false, true, false, false, false, true, false, false,
    false, true, false, false, false, true, false, false, false, false
];
friends =
[|true, true, true, true, true, false, true, true, true, true, true, true, false, true, true, true, false, true, true, false, true, false, false, true, false, false, false, false, false, false, false, false, true, false, false, false, false, false, false, false
|true, true, true, true, false, true, true, true, true, true, false, true, true, false, true, true, true, true, true, false, true, true, false, true, false, true, false, true, false, false, false, true, false, false, false, false, false, false, false, false
|true, true, true, true, true, true, true, true, true, false, false, false, false, false, false, false, true, true, false, true, true, true, false, false, true, false, false, true, true, false, false, false, false, false, true, false, false, false, false, false
|true, true, true, true, true, true, false, true, false, true, true, true, false, true, true, false, true, true, true, false, false, true, true, true, true, true, true, false, false, false, false, false, false, false, true, false, false, false, false, false
|true, false, true, true, true, true, true, true, true, true, true, true, true, true, false, false, true, true, true, false, false, true, false, true, true, false, true, true, false, false, true, false, false, true, true, false, false, false, false, false
|false, true, true, true, true, true, true, true, true, true, true, true, true, false, true, true, true, false, true, true, true, true, false, false, false, false, false, true, false, true, true, true, true, false, false, false, false, false, false, true
|true, true, true, false, true, true, true, false, true, true, true, true, true, false, true, true, true, false, true, false, true, true, true, false, true, false, false, true, false, false, true, true, true, true, true, false, false, true, false, false
|true, true, true, true, true, true, false, true, true, true, true, true, false, false, true, true, false, true, true, true, true, true, true, true, true, true, true, true, true, true, true, false, false, false, true, false, false, true, false, false
|true, true, true, false, true, true, true, true, true, true, true, false, true, true, false, true, true, true, false, true, true, false, true, true, true, false, true, false, false, true, true, true, true, false, true, true, false, true, true, true
|true, true, false, true, true, true, true, true, true, true, true, true, true, true, true, false, false, true, true, true, false, true, true, false, false, true, false, true, false, false, false, true, false, false, false, false, false, false, true, true
|true, false, false, true, true, true, true, true, true, true, true, true, true, true, true, true, false, true, true, true, true, true, true, true, true, true, false, true, false, false, true, true, true, false, true, false, false, false, false, false
|true, true, false, true, true, true, true, true, false, true, true, true, true, true, true, true, true, true, true, true, true, true, false, false, false, false, false, true, false, true, false, true, true, true, true, true, true, false, true, true
|false, true, false, false, true, true, true, false, true, true, true, true, true, true, true, true, true, true, true, false, true, false, true, false, true, true, false, true, true, true, true, true, false, false, false, true, false, true, false, true
|true, false, false, true, true, false, false, false, true, true, true, true, true, true, true, true, true, true, true, true, true, true, true, true, false, true, true, true, false, true, false, false, true, false, false, false, false, false, false, false
|true, true, false, true, false, true, true, true, false, true, true, true, true, true, true, true, true, true, true, true, true, true, true, true, false, true, true, false, false, false, true, true, true, true, true, true, true, true, false, false
|true, true, false, false, false, true, true, true, true, false, true, true, true, true, true, true, true, false, true, true, false, true, true, true, true, true, true, false, false, false, false, false, false, true, true, true, false, true, true, false
|false, true, true, true, true, true, true, false, true, false, false, true, true, true, true, true, true, true, true, true, true, true, true, true, true, true, false, true, false, false, true, false, false, true, true, true, true, true, false, false
|true, true, true, true, true, false, false, true, true, true, true, true, true, true, true, false, true, true, true, true, true, true, true, true, true, true, true, false, true, true, true, false, false, true, false, false, true, true, true, false
|true, true, false, true, true, true, true, true, false, true, true, true, true, true, true, true, true, true, true, true, true, true, true, true, false, true, false, true, true, true, true, false, true, true, false, false, true, true, true, true
|false, false, true, false, false, true, false, true, true, true, true, true, false, true, true, true, true, true, true, true, true, true, true, true, true, true, true, false, true, true, false, false, true, false, true, true, true, true, true, false
|true, true, true, false, false, true, true, true, true, false, true, true, true, true, true, false, true, true, true, true, true, true, true, true, true, false, true, true, true, true, true, false, true, true, true, true, true, true, true, false
|false, true, true, true, true, true, true, true, false, true, true, true, false, true, true, true, true, true, true, true, true, true, true, true, true, true, true, true, true, true, false, true, true, false, false, true, true, false, false, true
|false, false, false, true, false, false, true, true, true, true, true, false, true, true, true, true, true, true, true, true, true, true, true, true, true, false, true, true, true, true, true, false, false, true, true, false, false, true, false, true
|true, true, false, true, true, false, false, true, true, false, true, false, false, true, true, true, true, true, true, true, true, true, true, true, true, true, true, true, true, true, true, false, true, true, true, true, false, false, true, true
|false, false, true, true, true, false, true, true, true, false, true, false, true, false, false, true, true, true, false, true, true, true, true, true, true, true, true, true, true, true, true, true, true, true, true, true, true, true, false, true
|false, true, false, true, false, false, false, true, false, true, true, false, true, true, true, true, true, true, true, true, false, true, false, true, true, true, true, true, true, true, true, true, true, true, true, true, true, true, true, true
|false, false, false, true, true, false, false, true, true, false, false, false, false, true, true, true, false, true, false, true, true, true, true, true, true, true, true, true, true, true, false, false, false, true, true, true, false, true, true, true
|false, true, true, false, true, true, true, true, false, true, true, true, true, true, false, false, true, false, true, false, true, true, true, true, true, true, true, true, true, true, true, true, true, true, true, true, true, false, true, false
|false, false, true, false, false, false, false, true, false, false, false, false, true, false, false, false, false, true, true, true, true, true, true, true, true, true, true, true, true, true, true, true, true, false, true, true, false, true, true, true
|false, false, false, false, false, true, false, true, true, false, false, true, true, true, false, false, false, true, true, true, true, true, true, true, true, true, true, true, true, true, true, true, true, true, true, true, false, false, true, true
|false, false, false, false, true, true, true, true, true, false, true, false, true, false, true, false, true, true, true, false, true, false, true, true, true, true, false, true, true, true, true, true, true, true, true, true, false, true, true, false
|false, true, false, false, false, true, true, false, true, true, true, true, true, false, true, false, false, false, false, false, false, true, false, false, true, true, false, true, true, true, true, true, true, true, true, true, true, true, false, true
|true, false, false, false, false, true, true, false, true, false, true, true, false, true, true, false, false, false, true, true, true, true, false, true, true, true, false, true, true, true, true, true, true, true, true, true, true, false, true, false
|false, false, false, false, true, false, true, false, false, false, false, true, false, false, true, true, true, true, true, false, true, false, true, true, true, true, true, true, false, true, true, true, true, true, true, true, true, false, true, true
|false, false, true, true, true, false, true, true, true, false, true, true, false, false, true, true, true, false, false, true, true, false, true, true, true, true, true, true, true, true, true, true, true, true, true, true, true, true, true, true
|false, false, false, false, false, false, false, false, true, false, false, true, true, false, true, true, true, false, false, true, true, true, false, true, true, true, true, true, true, true, true, true, true, true, true, true, true, true, true, true
|false, false, false, false, false, false, false, false, false, false, false, true, false, false, true, false, true, true, true, true, true, true, false, false, true, true, false, true, false, false, false, true, true, true, true, true, true, false, true, false
|false, false, false, false, false, false, true, true, true, false, false, false, true, false, true, true, true, true, true, true, true, false, true, false, true, true, true, false, true, false, true, true, false, false, true, true, false, true, true, true
|false, false, false, false, false, false, false, false, true, true, false, true, false, false, false, true, false, true, true, true, true, false, false, true, false, true, true, true, true, true, true, false, true, true, true, true, true, true, true, true
|false, false, false, false, false, true, false, false, true, true, false, true, true, false, false, false, false, false, true, false, false, true, true, true, true, true, true, false, true, true, false, true, false, true, true, true, false, true, true, true
|];
competitive_satisfaction_factor = 800;
